
  32    4
  10   10   10   10

   0   0   0   0   0  12 2 3 4 5 6 8 13 14 15 16 30 31 
   8   1   0   1   1   7 23 22 21 17 11 10 9 
   6   0   1   3   3   6 27 25 24 21 20 7 
   4   5   4   0   6   8 27 26 25 24 23 21 17 9 
   8   4   2   3   0   8 29 28 26 25 24 22 19 9 
   3   4   2   0   6   4 21 19 18 12 
   4   2   4   3   0   4 23 22 19 17 
   3   0   3   2   2   4 23 22 21 18 
   3   6   5   3   0   1 20 
   9   0   2   1   7   1 19 
   6   4   3   5   0   1 18 
   3   8   0   3   3   1 17 
   4   0   6   7   4   1 20 
   9   0   4   5   5   1 18 
   7   5   5   0   3   1 18 
   7   2   0   2   4   1 17 
   2   2   2   0   2   1 32
   6   0   6   9   3   1 32
  10   2   5   0   4   1 32
   4   4   6   6   0   1 32
   9   2   0   3   4   1 32
   1   5   0   2   2   1 32
   6   4   0   4   6   1 32
   1   8   4   0   4   1 32
   4   5   6   4   0   1 32
   3   6   0   6   2   1 32
   7   4   0   6   3   1 32
   1   0   7   4   4   1 32
   1   2   0   5   6   1 32
   2   0   2   5   5   1 32
   4   3   5   0   7   1 32
   0   0   0   0   0   0 
